21 -47 -49 -51 0
-47 -48 -49 -50 -51 -52 0
-23 47 -49 -52 0
20 18 23 -48 -49 0
-48 -49 -52 -50 -51 0
d -47 -48 -49 -50 -51 -52 0
23 48 -49 -50 0
-49 -50 -52 -51 0
d -48 -49 -52 -50 -51 0
-23 49 -52 0
49 -51 -52 0
21 18 23 -49 0
23 -51 -52 0
-49 -51 -52 0
d -49 -50 -52 -51 0
-51 -52 0
d 49 -51 -52 0
d -49 -51 -52 0
-23 -49 -52 0
d -23 47 -49 -52 0
-49 -52 0
d -23 -49 -52 0
-52 0
23 51 49 0
21 -23 0
51 49 0
d 23 51 49 0
-23 49 0
d -23 49 -52 0
49 0
23 -51 0
d 23 -51 -52 0
-23 -51 0
d -17 -23 -51 0
-51 0
-21 -23 0
d -17 -21 -23 0
-23 0
18 0
17 0
-13 0
47 0
-11 0
45 0
-9 0
43 0
-21 0
-7 0
15 0
27 0
46 0
29 0
0
